c   #vars: 116   #clauses: 533   #literals: 1460
c 
p cnf 116 533
-1 -2 0
-3 -4 0
-5 -6 0
-7 -8 0
-9 -10 0
-11 -12 0
-13 -14 0
-15 -16 0
-17 -18 0
-19 -20 0
-21 -22 0
-23 -24 0
-25 -26 0
-27 -28 0
1 2 15 16 0
17 18 89 90 0
-29 -30 0
-31 -32 0
-33 -34 0
19 20 38 -41 0
-36 -37 0
44 64 65 -98 0
-39 -40 0
-41 -42 0
29 30 51 -68 0
-45 -46 0
-47 -48 0
77 78 109 110 0
104 105 109 110 0
-49 -50 0
-29 44 98 99 0
64 65 92 93 0
61 -71 83 84 0
-52 -53 0
3 4 101 102 0
3 4 111 112 0
-54 -55 0
-57 -58 0
-59 -60 0
-51 68 107 108 0
-62 -63 0
-64 -65 0
-66 -67 0
54 55 91 -107 0
-69 -70 0
-71 -72 0
-73 -74 0
-75 -76 0
-77 -78 0
-79 -80 0
-81 -82 0
-83 -84 0
-85 -86 0
-87 -88 0
-89 -90 0
39 40 -98 100 0
-92 -93 0
-94 -95 0
89 90 94 95 0
13 14 94 95 0
-96 -97 0
-98 -99 0
83 84 103 -113 0
-29 -34 51 68 0
83 84 -87 106 0
29 30 111 112 0
-101 -102 0
-83 87 88 106 0
-104 -105 0
71 72 113 114 0
7 8 25 26 0
-107 -108 0
-109 -110 0
-111 -112 0
-113 -114 0
7 8 13 14 0
-115 -116 0
-1 -15 0
-2 -16 0
-2 -43 0
94 95 96 97 0
5 6 57 58 0
-1 -54 0
-2 -55 0
35 39 40 -94 0
-1 -75 0
-2 -76 0
-3 -36 0
-4 -37 0
-29 44 64 65 0
-4 -38 0
29 30 47 48 0
-3 -45 0
-4 -46 0
-3 -59 0
-4 -60 0
-3 -66 0
-4 -67 0
52 53 101 102 0
-3 -83 0
-4 -84 0
-3 -101 0
-4 -102 0
79 80 113 114 0
-3 -111 0
-4 -112 0
-5 -49 0
-6 -50 0
3 4 59 60 0
-5 -57 0
-6 -58 0
23 24 109 110 0
-5 -64 0
-6 -65 0
3 4 66 67 0
35 87 88 -94 0
15 16 73 74 0
-5 -111 0
-6 -112 0
11 12 75 76 0
-7 -13 0
-8 -14 0
57 58 98 99 0
-7 -21 0
-8 -22 0
-7 -25 0
-8 -26 0
-7 -77 0
-8 -78 0
11 12 33 34 0
-7 -98 0
-8 -99 0
3 4 83 84 0
-71 83 84 103 0
-8 -100 0
-9 -49 0
-10 -50 0
11 12 98 99 0
-9 -52 0
-10 -53 0
5 6 111 112 0
-9 -109 0
-10 -110 0
-83 103 113 114 0
-9 -111 0
-10 -112 0
19 20 33 34 0
-11 -15 0
-12 -16 0
15 16 21 22 0
-11 -21 0
-12 -22 0
36 37 85 86 0
-11 -33 0
-12 -34 0
56 -62 89 90 0
-12 -43 0
73 74 87 88 0
-11 -75 0
-12 -76 0
-29 51 68 -108 0
-11 -98 0
-12 -99 0
-13 -25 0
-14 -26 0
21 22 33 34 0
-13 -31 0
-14 -32 0
17 18 59 60 0
-13 -62 0
-14 -63 0
-13 -75 0
-14 -76 0
-13 -77 0
-14 -78 0
17 18 49 50 0
-13 -94 0
-14 -95 0
-15 -19 0
-16 -20 0
23 24 39 40 0
-15 -21 0
-16 -22 0
-15 -23 0
-16 -24 0
-69 83 84 106 0
-15 -25 0
-16 -26 0
69 70 75 76 0
-15 -73 0
-16 -74 0
23 24 111 112 0
59 60 66 67 0
-17 -49 0
-18 -50 0
35 39 40 -87 0
62 63 83 84 0
-17 -54 0
-18 -55 0
49 50 79 80 0
-17 -59 0
-18 -60 0
52 53 73 74 0
-17 -69 0
-18 -70 0
87 88 104 105 0
-17 -89 0
-18 -90 0
27 28 109 110 0
-17 -94 0
-18 -95 0
-19 -33 0
-20 -34 0
96 97 111 112 0
29 30 44 -98 0
-20 -38 0
9 10 49 50 0
-34 68 107 108 0
-20 -61 0
25 26 49 50 0
-19 -96 0
-20 -97 0
52 53 92 93 0
1 2 -23 43 0
15 16 25 26 0
1 2 -11 43 0
17 18 69 70 0
-21 -33 0
-22 -34 0
-21 -69 0
-22 -70 0
27 28 54 55 0
-23 -39 0
-24 -40 0
31 32 64 65 0
-24 -43 0
13 14 62 63 0
-23 -54 0
-24 -55 0
-7 39 40 100 0
-24 -91 0
-23 -92 0
-24 -93 0
104 105 115 116 0
-23 -109 0
-24 -110 0
89 90 113 114 0
-23 -111 0
-24 -112 0
-7 98 99 100 0
-25 -49 0
-26 -50 0
33 34 98 99 0
-25 -89 0
-26 -90 0
27 28 92 93 0
19 20 61 -83 0
52 53 85 86 0
-27 -47 0
-28 -48 0
39 40 115 116 0
-27 -54 0
-28 -55 0
45 46 98 99 0
-27 -57 0
-28 -58 0
39 40 45 46 0
-27 -64 0
-28 -65 0
31 32 101 102 0
-27 -83 0
-28 -84 0
39 40 85 86 0
-27 -92 0
-28 -93 0
75 76 115 116 0
-27 -109 0
-28 -110 0
56 81 82 -89 0
39 40 57 58 0
56 -62 81 82 0
29 30 31 32 0
-29 -31 0
-30 -32 0
29 30 51 -54 0
-30 -44 0
31 32 71 72 0
-29 -47 0
-30 -48 0
56 -81 89 90 0
-19 61 83 84 0
-30 -51 0
47 48 64 65 0
-29 -111 0
-30 -112 0
-31 -64 0
-32 -65 0
47 48 115 116 0
-31 -71 0
-32 -72 0
-31 -101 0
-32 -102 0
-33 -68 0
-23 54 55 91 0
3 4 36 37 0
-33 -98 0
-34 -99 0
56 62 63 -81 0
-3 19 20 38 0
-35 -40 0
-19 38 41 42 0
-35 -88 0
15 16 19 20 0
-3 38 41 42 0
-35 -95 0
61 71 72 -83 0
41 42 45 46 0
-36 -64 0
-37 -65 0
-36 -85 0
-37 -86 0
-36 -113 0
-37 -114 0
54 55 96 97 0
29 30 44 -64 0
-38 -42 0
13 14 25 26 0
-39 -45 0
-40 -46 0
77 78 92 93 0
-39 -57 0
-40 -58 0
96 97 107 108 0
-39 -85 0
-40 -86 0
41 42 96 97 0
71 72 103 -113 0
-40 -100 0
13 14 75 76 0
-39 -115 0
-40 -116 0
11 12 -23 43 0
-41 -45 0
-42 -46 0
27 28 64 65 0
-41 -94 0
-42 -95 0
44 -64 98 99 0
-41 -96 0
-42 -97 0
27 28 83 84 0
23 24 -54 91 0
-44 -65 0
23 24 91 -107 0
-44 -99 0
19 20 96 97 0
3 4 38 -41 0
-45 -98 0
-46 -99 0
9 10 52 53 0
-47 -64 0
-48 -65 0
64 65 107 108 0
-47 -79 0
-48 -80 0
3 4 -19 38 0
-47 -115 0
-48 -116 0
5 6 49 50 0
-19 61 71 72 0
-11 23 24 43 0
-49 -79 0
-50 -80 0
27 28 47 48 0
-1 23 24 43 0
-51 -55 0
-71 103 113 114 0
-54 91 107 108 0
21 22 69 70 0
-52 -73 0
-53 -74 0
62 63 69 70 0
-52 -85 0
-53 -86 0
-52 -92 0
-53 -93 0
7 8 98 99 0
-52 -101 0
-53 -102 0
66 67 113 114 0
1 2 54 55 0
7 8 -98 100 0
-55 -91 0
62 63 101 102 0
-54 -96 0
-55 -97 0
-56 -63 0
-56 -82 0
-39 98 99 100 0
19 20 61 -71 0
-56 -90 0
11 12 15 16 0
-57 -98 0
-58 -99 0
-34 51 -54 68 0
-59 -66 0
-60 -67 0
47 48 79 80 0
-59 -109 0
-60 -110 0
79 80 81 82 0
-59 -111 0
-60 -112 0
33 34 68 -108 0
-61 -72 0
96 97 115 116 0
33 34 -51 68 0
-61 -84 0
13 14 77 78 0
-62 -69 0
-63 -70 0
-62 -79 0
-63 -80 0
85 86 101 102 0
-62 -83 0
-63 -84 0
59 60 109 110 0
-62 -101 0
-63 -102 0
17 18 94 95 0
-64 -92 0
-65 -93 0
7 8 21 22 0
-64 -107 0
-65 -108 0
3 4 45 46 0
-66 -104 0
-67 -105 0
87 88 96 97 0
-66 -113 0
-67 -114 0
62 63 79 80 0
-68 -107 0
-23 91 107 108 0
9 10 111 112 0
-69 -75 0
-70 -76 0
73 74 115 116 0
-70 -106 0
-1 11 12 43 0
-69 87 88 106 0
-72 -103 0
73 74 94 95 0
-71 -113 0
-72 -114 0
1 2 75 76 0
-73 -87 0
-74 -88 0
5 6 64 65 0
-73 -94 0
-74 -95 0
51 54 55 -68 0
-73 -115 0
-74 -116 0
-75 -115 0
-76 -116 0
41 42 94 95 0
-77 -92 0
-78 -93 0
35 -87 94 95 0
-77 -109 0
-78 -110 0
9 10 109 110 0
-79 -81 0
-80 -82 0
23 24 54 55 0
17 18 54 55 0
35 -39 87 88 0
-79 -113 0
-80 -114 0
27 28 57 58 0
-81 -92 0
-82 -93 0
51 -54 68 -108 0
-81 -107 0
-82 -108 0
35 -39 94 95 0
69 70 -87 106 0
-84 -103 0
81 82 92 93 0
-84 -106 0
23 24 92 93 0
-85 -101 0
-86 -102 0
25 26 89 90 0
-87 -96 0
-88 -97 0
-87 -104 0
-88 -105 0
36 37 64 65 0
-88 -106 0
66 67 104 105 0
-89 -94 0
-90 -95 0
56 62 63 -89 0
-89 -113 0
-90 -114 0
11 12 21 22 0
7 8 -39 100 0
-91 -108 0
15 16 23 24 0
59 60 111 112 0
-94 -96 0
-95 -97 0
7 8 77 78 0
-96 -107 0
-97 -108 0
36 37 113 114 0
-96 -111 0
-97 -112 0
13 14 31 32 0
-96 -115 0
-97 -116 0
71 72 -83 103 0
-99 -100 0
-29 51 54 55 0
69 70 -83 106 0
-103 -114 0
-104 -109 0
-105 -110 0
81 82 107 108 0
-104 -115 0
-105 -116 0
